[runlim] version:		2.0.0rc12
[runlim] host:			ap-Precision-7550
[runlim] time limit:		311040000 seconds
[runlim] real time limit:	600 seconds
[runlim] space limit:		14000 MB
[runlim] argv[0]:		python3
[runlim] argv[1]:		cp.py
[runlim] argv[2]:		graph10
[runlim] start:			Thu Mar 26 04:06:33 2026
[runlim] child:			31833
--- Building model for 680 variables ---
--- Solving with CP Optimizer (Integer Mode) ---
 ! --------------------------------------------------- CP Optimizer 22.1.1.0 --
 ! Minimization problem - 680 variables, 3907 constraints
 ! LogVerbosity         = Terse
 ! Initial process time : 0.04s (0.04s extraction + 0.00s propagation)
 !  . Log search space  : 3582.1 (before), 3582.1 (after)
 !  . Memory usage      : 2.2 MB (before), 2.2 MB (after)
 ! Using parallel search with 12 workers.
 ! ----------------------------------------------------------------------------
 !          Best Branches  Non-fixed    W       Branch decision
                        0        680                 -
 + New bound is 0
                        0        680                 -
 + New bound is 2
                       38        680    1   F   764 != node_228
 + New bound is 3
 *            44     2697  0.20s        5      (gap is 93.18%)
 *            42    15208  0.99s        4      (gap is 92.86%)
 *            40    16940  1.20s        4      (gap is 92.50%)
 *            38    30154  2.46s        9      (gap is 92.11%)
 *            36    31885  2.63s        9      (gap is 91.67%)
 *            34    44843  3.86s        1      (gap is 91.18%)
 *            32    54182  4.21s       10      (gap is 90.62%)
 *            30    93302  8.94s       10      (gap is 90.00%)
[runlim] sample:		72.38 time, 10.01 real, 181 MB, 7.87 load
 *            28    77275  9.55s        2      (gap is 89.29%)
 *            26    78117  9.66s        2      (gap is 88.46%)
 *            24    78271  9.67s        2      (gap is 87.50%)
 *            22    88451  9.76s        7      (gap is 86.36%)
[runlim] sample:		154.38 time, 20.02 real, 193 MB, 8.51 load
              22     214k        674    2   F   442 != node_562
 + New bound is 4 (gap is 81.82%)
              22     215k        676    2   F   310 != node_648
 + New bound is 5 (gap is 77.27%)
              22     223k        676    7   F   764 != node_176
 + New bound is 6 (gap is 72.73%)
              22     239k        672    4   F   296 != node_381
 + New bound is 7 (gap is 68.18%)
              22     248k        674   11   F   554 != node_27
 + New bound is 8 (gap is 63.64%)
 ! Time = 24.25s, Average fail depth = 27, Memory usage = 74.3 MB
 ! Current bound is 8 (gap is 63.64%)
 !          Best Branches  Non-fixed    W       Branch decision
[runlim] sample:		242.11 time, 30.01 real, 203 MB, 8.38 load
[runlim] sample:		326.59 time, 40.01 real, 208 MB, 8.20 load
[runlim] sample:		412.66 time, 50.01 real, 212 MB, 8.06 load
[runlim] sample:		500.17 time, 60.01 real, 217 MB, 7.79 load
[runlim] sample:		583.82 time, 70.01 real, 221 MB, 7.76 load
[runlim] sample:		668.01 time, 80.01 real, 223 MB, 7.82 load
              22     794k        674    9   F   694 != node_603
 + New bound is 9 (gap is 59.09%)
[runlim] sample:		757.24 time, 90.01 real, 226 MB, 8.47 load
              22     863k        672   11   F   352 != node_27
 + New bound is 11 (gap is 50.00%)
[runlim] sample:		844.25 time, 100.01 real, 228 MB, 8.13 load
[runlim] sample:		930.54 time, 110.02 real, 230 MB, 8.51 load
[runlim] sample:		1016.30 time, 120.02 real, 232 MB, 8.90 load
[runlim] sample:		1103.65 time, 130.01 real, 233 MB, 8.52 load
[runlim] sample:		1191.71 time, 140.02 real, 235 MB, 8.57 load
[runlim] sample:		1277.94 time, 150.02 real, 236 MB, 8.96 load
[runlim] sample:		1363.12 time, 160.01 real, 238 MB, 8.63 load
[runlim] sample:		1448.44 time, 170.02 real, 239 MB, 9.22 load
[runlim] sample:		1535.87 time, 180.01 real, 241 MB, 8.99 load
[runlim] sample:		1624.60 time, 190.01 real, 242 MB, 9.01 load
[runlim] sample:		1711.81 time, 200.01 real, 243 MB, 9.47 load
[runlim] sample:		1801.19 time, 210.02 real, 244 MB, 9.78 load
[runlim] sample:		1891.15 time, 220.01 real, 246 MB, 9.97 load
[runlim] sample:		1974.97 time, 230.01 real, 247 MB, 10.13 load
[runlim] sample:		2062.22 time, 240.02 real, 249 MB, 9.77 load
[runlim] sample:		2152.03 time, 250.01 real, 250 MB, 9.30 load
[runlim] sample:		2238.17 time, 260.01 real, 251 MB, 8.56 load
[runlim] sample:		2326.37 time, 270.01 real, 253 MB, 9.09 load
[runlim] sample:		2417.18 time, 280.01 real, 254 MB, 9.47 load
[runlim] sample:		2504.07 time, 290.01 real, 255 MB, 9.56 load
[runlim] sample:		2590.95 time, 300.01 real, 256 MB, 9.62 load
[runlim] sample:		2677.61 time, 310.01 real, 257 MB, 9.17 load
[runlim] sample:		2767.41 time, 320.02 real, 258 MB, 8.65 load
[runlim] sample:		2852.39 time, 330.02 real, 259 MB, 8.69 load
[runlim] sample:		2942.26 time, 340.01 real, 261 MB, 8.48 load
[runlim] sample:		3029.99 time, 350.01 real, 261 MB, 8.86 load
[runlim] sample:		3118.31 time, 360.01 real, 262 MB, 8.62 load
[runlim] sample:		3204.32 time, 370.02 real, 263 MB, 8.63 load
[runlim] sample:		3295.00 time, 380.01 real, 264 MB, 8.48 load
[runlim] sample:		3381.29 time, 390.01 real, 266 MB, 8.86 load
[runlim] sample:		3468.88 time, 400.01 real, 267 MB, 9.35 load
[runlim] sample:		3557.17 time, 410.02 real, 268 MB, 9.35 load
[runlim] sample:		3646.47 time, 420.01 real, 269 MB, 9.76 load
[runlim] sample:		3735.17 time, 430.02 real, 270 MB, 8.56 load
[runlim] sample:		3824.37 time, 440.02 real, 271 MB, 9.09 load
[runlim] sample:		3914.66 time, 450.02 real, 273 MB, 8.40 load
[runlim] sample:		4004.36 time, 460.01 real, 274 MB, 7.78 load
[runlim] sample:		4093.35 time, 470.01 real, 275 MB, 8.67 load
[runlim] sample:		4184.90 time, 480.02 real, 275 MB, 7.49 load
[runlim] sample:		4272.37 time, 490.02 real, 276 MB, 7.23 load
[runlim] sample:		4359.87 time, 500.02 real, 277 MB, 8.13 load
[runlim] sample:		4448.10 time, 510.02 real, 278 MB, 7.79 load
[runlim] sample:		4535.26 time, 520.02 real, 280 MB, 7.43 load
[runlim] sample:		4622.90 time, 530.01 real, 280 MB, 7.16 load
[runlim] sample:		4709.91 time, 540.01 real, 281 MB, 7.22 load
[runlim] sample:		4795.29 time, 550.01 real, 282 MB, 7.80 load
[runlim] sample:		4883.03 time, 560.01 real, 284 MB, 7.42 load
[runlim] sample:		4974.46 time, 570.01 real, 284 MB, 7.81 load
[runlim] sample:		5060.76 time, 580.01 real, 285 MB, 7.28 load
[runlim] sample:		5150.71 time, 590.02 real, 287 MB, 7.85 load
[runlim] sample:		5241.56 time, 600.01 real, 287 MB, 6.87 load
[runlim] end:			Thu Mar 26 04:16:34 2026
[runlim] status:		out of time
[runlim] result:		2
[runlim] children:		2
[runlim] processes:		3
[runlim] real:			601.06 seconds
[runlim] time:			5241.56 seconds
[runlim] space:			287 MB
[runlim] load:			10.28 maximum
[runlim] samples:		6000
